17	4	3
16	27	23	38	19	29	39	
0	0	0	0	0	9	1	7	2	6	7	3	2	3	4
9	5	0	0	2	8	8	7	6	9	6	3	5	9	17
4	0	5	0	9	7	10	3	10	9	1	3	10	13	14
5	4	0	0	0	5	6	7	10	6	6	3	6	7	8
7	3	2	7	0	2	10	7	10	3	9	1	6
25	6	2	0	0	3	2	9	10	4	5	1	17
75	0	0	0	3	6	2	2	3	7	1	1	17
225	0	0	0	9	8	4	10	1	3	9	1	17
200	7	0	5	3	2	8	5	8	7	10	3	11	14	17
250	0	1	0	0	4	9	10	1	8	3	3	12	16	17
150	0	4	4	9	9	1	5	8	10	8	2	15	17
125	0	1	0	0	2	6	9	4	8	6	1	17
10	0	0	9	0	5	6	9	5	6	2	1	17
3	8	4	0	7	3	8	9	8	5	6	2	17	17
6	0	5	2	7	7	9	4	7	10	2	1	17
9	0	0	2	0	9	9	3	4	6	2	1	17
0	0	0	0	0	1	8	8	10	2	5	0
